100
15
7	9	5	8	6	9	5	5	9	5	6	8	8	7	6	7	7	7	5	8	9	6	5	7	6	6	5	9	8	9	6	7	8	6	7	9	5	7	7	8	6	6	6	8	9	8	9	6	8	8	8	9	9	7	8	5	6	7	7	8	9	8	5	9	6	9	5	9	9	7	8	5	7	6	6	8	6	6	9	5	7	8	5	5	8	5	6	8	6	9	8	6	7	5	9	9	5	9	6	8	
41	0	41	41	41	41	0	41	0	0	41	0	0	0	41	
86	0	0	0	0	86	86	86	86	86	86	86	86	0	86	
65	65	0	0	0	65	65	0	65	0	65	0	0	65	65	
32	32	0	0	0	0	32	0	0	0	32	32	0	32	0	
87	0	87	0	87	0	0	87	87	0	87	87	87	0	87	
0	43	0	43	0	0	43	0	0	0	43	43	43	43	0	
0	0	0	82	82	0	0	82	82	0	0	82	0	0	0	
41	0	0	0	0	0	0	0	0	41	0	41	41	0	41	
0	91	91	0	91	0	0	0	0	91	0	0	91	91	91	
0	0	0	0	0	0	29	29	0	29	0	29	29	29	0	
13	13	13	13	13	13	13	0	0	0	0	0	13	0	13	
0	0	15	15	0	0	15	0	15	15	15	15	0	15	0	
0	0	0	0	0	10	10	10	0	10	10	10	10	0	0	
0	66	0	66	66	0	66	66	0	0	66	66	0	66	0	
38	0	0	0	0	38	0	38	0	38	38	38	38	0	38	
65	0	0	0	0	65	65	65	0	0	0	0	0	65	0	
0	86	0	0	86	86	0	0	0	86	86	0	86	86	0	
0	45	45	45	0	0	0	45	45	0	45	0	0	45	0	
56	0	56	56	0	56	0	56	0	0	0	0	0	0	56	
52	52	0	52	0	52	0	0	0	0	0	0	0	0	52	
0	49	49	49	0	0	0	0	49	0	0	49	49	0	0	
0	65	0	0	65	0	65	65	0	0	65	65	0	0	65	
0	25	25	25	0	0	25	0	25	0	25	25	25	0	25	
84	0	84	0	0	84	84	0	84	84	0	84	0	84	84	
89	89	89	0	89	89	0	89	0	0	0	0	0	0	0	
20	0	0	0	20	20	0	20	20	0	20	0	0	20	0	
18	18	18	18	18	0	18	18	0	0	0	18	0	0	0	
0	0	53	53	0	53	0	53	0	53	53	0	0	0	53	
0	76	76	0	0	76	76	76	0	0	76	0	76	0	76	
37	37	0	0	0	37	37	0	37	0	0	0	0	37	37	
49	0	0	0	49	0	0	49	49	49	49	0	49	0	49	
0	12	0	12	12	0	0	0	0	12	0	0	0	12	0	
0	23	0	23	0	0	23	23	0	0	23	0	23	0	0	
0	49	0	0	49	49	0	0	0	0	0	49	49	49	0	
0	79	79	0	0	0	79	0	79	79	79	0	79	79	0	
0	52	0	52	52	0	52	52	52	0	52	52	52	0	0	
42	0	0	42	0	0	0	42	42	42	0	0	0	42	0	
0	0	73	73	73	73	0	0	0	73	0	0	0	0	0	
49	49	0	0	0	49	0	49	49	49	0	0	49	49	0	
45	0	45	45	0	45	0	0	0	45	45	45	45	0	45	
80	0	0	0	0	0	0	80	80	80	80	0	80	80	0	
65	0	0	65	0	65	0	65	0	0	0	65	65	0	0	
0	0	90	90	0	0	90	0	0	90	0	0	90	90	0	
0	0	55	55	0	0	55	0	0	55	0	55	0	55	55	
67	0	67	67	67	0	67	67	67	0	67	0	67	67	67	
0	0	34	34	34	34	34	0	0	0	0	0	0	0	0	
33	0	33	33	33	0	33	0	0	0	33	0	33	33	0	
0	0	23	23	23	23	0	0	23	0	23	0	23	23	23	
76	0	76	76	76	76	0	76	76	76	0	76	0	0	76	
64	64	0	0	0	0	0	0	64	64	0	0	64	64	64	
0	79	0	0	0	79	0	79	79	0	79	79	79	0	79	
21	21	21	0	0	0	21	21	21	21	21	0	21	21	0	
0	43	43	43	43	0	0	0	0	0	43	0	0	43	43	
11	0	11	0	11	0	0	0	11	11	11	0	11	0	0	
0	98	98	98	0	0	98	98	98	0	98	98	98	0	98	
43	0	0	43	0	43	43	43	43	43	43	43	43	0	43	
63	63	0	63	0	63	0	0	63	63	63	0	63	63	63	
0	0	0	38	0	38	0	38	0	38	0	0	38	0	38	
0	0	18	18	0	18	18	18	0	18	0	18	18	18	0	
53	0	0	0	53	0	53	53	53	53	53	0	53	0	53	
72	72	72	0	72	0	72	72	72	0	72	0	72	0	72	
0	34	34	34	0	34	34	0	34	0	0	0	34	34	0	
50	0	50	50	50	0	50	0	0	0	0	50	50	0	0	
26	0	0	0	26	0	26	0	0	26	26	26	26	26	26	
79	79	0	79	0	0	79	79	0	0	79	79	79	79	0	
58	0	0	0	0	58	58	58	0	58	58	58	0	0	0	
0	87	0	87	0	87	0	87	0	0	0	0	0	87	87	
0	0	69	69	69	0	69	69	69	0	69	0	0	69	69	
23	23	23	0	0	23	0	23	0	0	23	23	0	23	23	
0	0	0	31	0	0	31	31	31	0	0	31	0	31	31	
25	0	25	25	0	0	25	25	0	25	25	0	0	25	25	
11	0	11	11	0	0	0	11	11	0	0	0	0	0	0	
83	83	83	83	0	0	83	0	0	83	0	0	0	0	0	
0	0	96	0	96	0	96	0	96	0	0	96	0	96	0	
71	71	0	0	0	71	0	0	71	0	71	0	71	0	71	
0	56	56	0	0	0	0	0	0	0	56	0	56	0	0	
32	32	32	32	0	32	0	0	0	0	32	32	32	32	32	
0	0	0	27	27	0	27	0	0	27	27	27	0	0	0	
0	0	0	0	14	14	0	14	14	14	0	14	14	0	14	
86	86	86	0	86	86	0	0	86	0	0	86	0	0	86	
12	12	0	0	0	12	12	12	12	12	12	0	0	12	12	
0	26	26	0	26	0	26	26	26	0	0	26	0	0	26	
0	62	0	62	62	0	62	62	0	62	0	0	0	0	0	
0	19	0	0	19	0	0	19	19	19	19	19	19	0	0	
45	45	45	45	45	45	0	0	45	0	45	45	45	45	0	
42	0	42	0	42	42	42	0	42	0	0	42	42	42	42	
0	95	0	95	95	0	0	95	0	0	95	95	0	95	0	
0	0	0	0	0	0	0	30	30	0	0	0	30	0	0	
67	0	67	67	67	67	0	0	0	0	0	0	0	0	67	
0	0	66	0	66	66	66	0	66	0	66	66	0	0	0	
0	46	46	0	46	0	0	0	46	46	46	0	46	0	46	
0	0	0	27	27	27	27	0	27	27	27	27	27	0	0	
0	81	0	0	81	81	81	81	0	0	81	0	81	0	0	
94	94	94	94	0	94	94	0	94	94	0	0	94	94	94	
0	0	0	37	37	0	0	0	0	0	37	0	37	0	37	
79	0	79	0	79	0	79	79	0	0	79	0	0	0	79	
41	41	0	0	41	41	41	0	41	0	0	0	0	41	41	
83	83	83	83	83	0	83	0	0	83	83	0	0	83	83	
83	83	83	0	83	0	83	83	0	0	83	83	83	83	83	
0	55	0	55	0	55	55	0	0	0	0	55	55	55	0	
0	0	0	44	0	44	44	44	44	44	44	44	0	44	0	
0	73	0	73	73	0	0	0	0	73	73	0	0	73	73	
0	54	0	0	0	54	0	54	0	54	54	0	0	0	0	
0	0	0	49	49	49	0	0	0	49	0	49	49	49	49	
91	0	0	91	0	0	0	91	0	0	91	91	0	91	0	
0	0	73	73	0	0	73	73	0	0	73	0	0	73	73	
0	52	52	0	52	0	0	52	0	0	52	52	0	52	0	
46	0	46	46	0	0	0	0	46	0	0	0	46	46	46	
0	0	0	0	0	37	37	0	0	37	37	0	0	0	37	
0	82	82	0	82	0	82	0	82	0	82	82	82	82	0	
0	48	48	48	0	0	0	0	0	48	48	0	0	48	0	
96	0	96	96	96	96	0	96	96	0	96	96	96	0	96	
48	0	0	0	0	48	48	0	0	0	48	0	0	0	48	
62	62	0	0	0	62	62	0	62	62	62	0	62	0	62	
0	0	0	0	18	18	18	18	18	18	18	0	0	0	18	
0	0	0	0	67	0	0	67	0	67	67	67	67	0	0	
0	90	0	0	0	90	90	90	0	0	0	0	90	90	90	
12	0	0	0	12	0	12	12	12	12	0	0	12	0	12	
0	46	46	46	0	46	46	46	0	46	46	46	46	0	0	
0	14	0	14	0	0	0	14	14	0	0	14	14	0	0	
0	0	79	0	79	79	0	79	0	79	0	0	79	79	79	
87	87	0	87	0	87	87	87	87	87	0	87	87	0	0	
0	35	35	35	0	0	35	0	35	35	35	0	0	0	35	
0	0	10	0	10	0	10	10	10	10	0	0	0	10	0	
0	70	70	70	70	70	0	0	0	0	70	70	70	70	0	
0	0	55	55	55	55	0	0	0	0	0	55	0	55	55	
90	90	0	90	90	0	90	0	0	0	90	90	0	90	0	
52	0	52	0	0	52	52	52	52	52	52	0	52	52	0	
87	87	0	87	87	0	87	87	87	0	0	87	87	87	87	
0	0	86	0	0	86	86	0	86	86	86	86	0	86	0	
34	34	0	0	0	0	34	0	34	34	0	0	0	0	0	
38	38	38	38	38	38	38	0	0	0	38	38	38	0	38	
66	0	66	66	0	66	66	66	0	66	66	66	66	66	66	
0	0	57	57	0	0	0	0	57	0	57	57	57	0	57	
69	0	0	0	69	69	69	69	69	0	0	0	69	0	0	
97	0	0	0	0	0	0	0	97	97	97	97	97	0	97	
0	91	91	91	91	0	91	0	0	0	0	0	91	0	91	
46	0	46	0	46	0	46	0	0	0	46	0	46	46	46	
0	11	11	11	11	0	0	11	11	0	0	0	0	0	0	
78	0	78	78	0	0	78	78	78	78	0	78	0	78	78	
61	0	0	0	0	0	0	61	61	61	61	0	61	0	0	
0	0	56	0	0	0	0	56	0	56	56	0	0	56	56	
73	73	73	0	73	0	73	0	73	73	0	0	73	73	0	
35	35	35	35	0	0	0	35	0	0	0	0	35	0	0	
0	0	82	0	0	0	82	0	0	0	82	0	82	82	82	
53	53	53	53	0	53	53	0	0	0	53	0	0	53	0	
64	64	0	64	0	0	0	64	64	0	64	64	0	0	64	
84	0	0	84	0	84	84	84	0	0	0	84	84	0	84	
17	17	0	17	17	17	0	0	0	0	17	0	17	17	17	
0	0	0	0	53	53	0	53	53	53	0	0	0	0	0	
0	43	43	0	43	0	0	0	43	43	0	43	43	43	43	
0	0	20	0	0	0	20	0	0	0	0	20	0	20	20	
19	0	19	0	19	19	19	19	19	19	0	0	19	19	19	
43	43	0	0	43	43	0	43	0	43	43	43	43	0	0	
91	0	0	0	91	91	91	0	91	91	0	91	91	91	0	
90	90	0	90	0	0	0	90	0	90	0	90	0	0	90	
0	0	82	0	0	0	82	0	82	82	0	0	0	0	82	
91	91	0	91	91	0	91	91	91	0	0	0	91	91	0	
23	23	23	0	23	23	0	0	23	23	0	0	23	23	23	
0	97	0	97	97	0	0	0	0	97	97	97	0	97	0	
32	0	32	32	32	32	32	0	0	0	32	32	0	0	32	
0	0	0	10	0	10	10	10	10	10	0	0	10	10	0	
25	0	0	25	25	0	0	0	0	0	0	0	0	25	25	
0	96	96	96	96	96	0	96	0	0	96	0	0	96	0	
0	0	84	0	0	84	0	84	84	0	0	0	84	84	0	
55	55	55	0	55	0	0	55	55	55	0	55	55	55	0	
29	29	29	0	29	0	0	0	29	29	29	0	0	29	29	
37	0	37	0	0	37	0	0	0	0	37	37	0	0	37	
12	12	12	0	12	12	12	12	12	12	0	0	12	12	0	
85	0	85	85	0	0	85	85	85	85	85	0	85	85	85	
0	0	0	0	0	56	56	0	0	56	0	0	56	0	56	
85	0	0	0	85	85	0	85	85	0	0	85	0	0	85	
76	76	0	76	0	76	0	0	76	76	0	76	76	0	76	
11	0	11	11	11	11	0	11	0	0	11	11	11	11	0	
0	76	0	76	76	0	0	0	76	0	76	0	0	0	76	
87	87	0	0	0	0	87	0	0	0	87	87	87	87	0	
0	0	0	77	0	0	77	77	77	0	77	77	77	77	0	
0	96	96	0	96	0	0	0	96	0	96	96	0	0	0	
18	18	18	18	18	18	18	18	0	0	18	0	0	0	18	
65	0	65	0	0	0	0	0	0	65	65	0	0	65	0	
0	0	0	66	66	0	66	66	66	66	0	0	66	0	66	
62	0	0	62	0	0	62	62	0	0	0	0	0	62	0	
0	52	0	0	52	52	52	52	52	52	0	0	52	52	0	
35	35	35	0	0	35	0	35	0	0	0	35	0	0	35	
13	13	0	0	0	13	0	0	0	13	0	13	0	0	13	
0	75	75	75	0	0	75	75	0	75	0	75	75	0	75	
0	13	0	0	13	0	13	13	13	13	0	13	13	13	0	
0	84	0	0	84	0	84	0	84	0	84	84	0	0	0	
85	0	85	85	0	0	0	0	85	0	85	0	85	85	85	
68	0	68	68	0	68	0	68	0	0	68	68	0	68	0	
0	0	0	22	0	0	0	22	0	0	0	0	0	22	22	
0	0	76	76	0	0	0	76	76	0	0	76	76	76	76	
0	89	89	0	89	0	89	89	89	89	89	89	89	0	89	
0	0	0	62	0	62	0	0	62	62	0	0	62	0	0	
63	0	0	0	63	0	0	0	0	63	0	0	0	0	63	
76	76	0	76	0	76	76	0	76	76	0	0	0	76	0	
59	59	0	59	0	59	0	59	0	0	59	0	59	59	0	
0	0	0	58	0	58	0	0	58	58	58	0	0	58	58	
0	0	75	0	75	75	75	75	0	75	0	75	75	0	75	
37	37	0	37	37	0	0	0	0	0	37	37	37	0	37	
0	93	0	0	93	0	0	0	93	0	93	93	93	93	0	
0	47	47	47	47	47	47	0	47	0	0	0	47	47	47	
19	0	0	0	0	0	0	0	0	19	19	0	19	19	19	
0	43	43	43	0	43	43	0	43	0	0	0	0	0	0	
0	0	12	12	12	12	12	0	12	0	0	12	12	12	12	
89	0	89	89	89	89	89	0	89	0	0	0	89	89	0	
0	83	83	83	83	83	0	83	83	83	83	83	0	0	0	
0	0	14	0	0	14	14	0	14	14	14	0	14	0	14	
0	0	22	0	0	0	0	22	0	22	0	22	0	22	22	
0	94	94	94	0	94	94	0	94	0	94	0	0	0	0	
53	53	53	0	53	0	0	0	53	53	0	53	0	0	53	
64	0	64	0	0	0	64	0	0	0	0	0	64	0	0	
0	0	0	0	98	0	98	98	0	0	98	0	98	98	98	
51	51	0	51	0	0	0	0	0	51	51	0	51	0	51	
54	54	54	54	0	54	54	0	0	0	54	0	54	54	0	
69	69	0	0	0	69	0	0	69	69	0	0	0	0	0	
11	11	11	11	11	0	11	11	11	11	11	0	11	0	0	
90	0	90	0	0	0	90	0	0	0	90	0	0	0	90	
0	0	39	39	0	0	39	39	39	0	39	0	39	0	39	
80	80	80	0	0	0	0	0	80	80	80	0	80	80	80	
82	82	82	82	82	82	82	82	0	0	82	0	82	0	0	
0	94	94	0	94	94	0	0	94	94	94	94	94	94	94	
0	0	0	0	35	0	35	35	0	35	0	0	0	35	0	
89	0	89	89	89	0	89	0	89	0	89	89	89	89	89	
0	0	0	0	0	0	41	41	41	41	41	0	41	0	0	
0	38	0	38	38	0	0	38	38	38	0	38	38	0	38	
0	92	0	92	92	92	0	0	92	0	0	0	0	92	0	
0	30	0	30	0	0	30	30	30	30	30	0	0	30	0	
78	78	78	0	78	78	78	0	78	0	78	0	0	78	78	
0	71	0	0	0	0	0	71	71	0	0	0	71	0	0	
68	68	0	68	0	68	0	0	68	0	0	0	68	68	0	
26	0	0	0	26	0	0	26	0	26	26	0	0	0	26	
34	0	34	0	0	34	34	34	34	0	34	34	0	0	34	
58	58	0	58	58	58	58	0	58	58	58	0	0	58	0	
0	67	67	67	0	67	0	0	0	67	0	0	0	0	0	
0	92	92	0	0	92	92	92	0	0	92	0	92	0	92	
79	0	79	79	0	0	79	79	0	0	0	0	0	79	79	
20	20	20	0	0	20	0	0	20	0	0	20	0	20	0	
11	11	11	0	0	11	11	0	0	11	0	0	0	0	0	
97	97	0	0	97	0	97	97	97	97	97	97	0	97	97	
0	64	64	64	64	0	0	0	0	0	0	0	64	0	0	
0	0	0	0	14	14	14	0	0	0	0	0	0	14	14	
51	51	51	51	51	51	51	0	51	0	0	0	0	0	51	
63	63	0	63	0	63	0	0	0	63	63	0	0	63	0	
48	0	0	48	48	48	48	0	48	48	0	48	48	48	48	
0	0	0	22	22	22	0	0	0	0	22	22	0	22	0	
0	39	39	0	0	0	0	0	0	0	39	39	0	39	39	
0	0	77	0	77	0	77	77	77	77	77	0	0	0	0	
24	0	24	24	24	24	0	0	24	24	24	24	24	0	0	
38	0	0	0	38	0	38	38	38	38	0	0	0	38	38	
0	0	0	71	71	0	71	71	0	71	71	0	71	0	0	
0	0	0	0	65	0	65	0	0	65	65	0	0	65	0	
0	0	14	0	0	14	14	0	0	0	14	14	14	0	14	
25	25	0	25	0	0	0	25	0	0	0	25	0	0	0	
0	77	0	77	0	77	77	0	77	0	0	77	0	77	77	
0	10	0	10	10	0	0	0	0	0	10	0	0	10	10	
71	0	0	71	0	0	0	71	0	0	0	0	0	0	0	
60	60	60	60	60	0	60	0	0	60	0	60	60	0	60	
0	0	44	0	0	44	44	0	44	0	0	0	0	0	0	
0	0	20	0	20	20	20	0	0	20	0	20	0	0	0	
0	0	0	0	55	55	55	55	55	55	0	55	0	0	55	
0	0	0	98	0	0	98	98	98	98	98	0	0	98	0	
0	0	0	45	0	0	0	45	45	45	45	45	45	45	45	
23	0	0	0	0	0	0	0	23	23	0	23	23	0	23	
92	92	0	92	0	0	92	0	92	0	92	0	92	92	92	
0	0	0	53	0	0	0	0	53	0	53	53	0	53	53	
45	45	0	45	0	45	45	45	0	45	0	45	0	0	45	
0	64	64	64	64	0	64	64	64	0	0	64	0	64	64	
0	0	0	43	43	0	0	0	43	0	43	0	0	0	43	
0	0	0	0	0	0	0	69	69	0	0	0	69	0	69	
0	0	0	31	0	31	31	0	31	0	0	0	31	0	0	
0	45	0	0	45	0	45	45	45	45	0	0	0	45	45	
0	0	0	35	35	35	35	0	35	0	35	0	35	35	35	
52	52	0	0	52	52	52	52	0	52	52	0	0	0	52	
25	25	25	0	0	0	25	0	0	0	0	0	0	0	0	
0	0	0	0	81	81	0	81	0	81	0	0	81	0	0	
0	0	94	0	94	94	94	0	0	94	94	94	0	0	94	
0	0	86	0	0	86	0	0	86	0	86	86	86	86	86	
23	0	23	0	0	23	0	0	23	0	0	23	0	23	0	
13	0	0	13	0	0	0	13	0	13	0	13	0	13	0	
88	0	0	88	88	88	88	88	0	88	88	88	0	0	0	
63	0	0	0	0	0	0	63	0	0	0	0	0	63	0	
56	0	56	0	0	56	56	0	0	56	56	0	0	56	56	
0	0	34	34	0	34	0	34	0	34	34	34	0	34	0	
0	80	0	80	0	80	80	80	80	0	0	80	0	0	80	
51	0	0	51	0	51	51	0	0	0	0	0	0	51	51	
68	68	0	68	0	0	0	68	68	68	68	68	0	0	0	
0	75	75	75	0	0	0	0	75	0	75	75	0	0	0	
49	49	49	0	49	49	0	49	49	49	49	0	49	0	49	
45	45	45	45	45	0	45	0	0	45	0	45	0	45	45	
0	0	0	96	0	96	96	96	0	96	0	0	0	0	96	
0	97	97	0	97	97	97	97	97	97	97	0	97	97	97	
67	67	0	0	67	67	67	0	0	67	67	67	0	0	0	
0	0	29	29	0	0	0	0	29	0	0	0	0	29	29	
66	66	0	66	0	66	0	66	66	66	66	0	66	66	0	
0	0	47	47	0	0	47	47	0	0	47	47	47	47	0	
0	0	28	0	28	28	28	0	28	0	0	0	28	28	0	
0	72	0	0	0	0	0	0	72	0	0	72	72	0	0	
53	53	53	53	0	53	53	0	53	0	53	53	53	0	53	
68	68	68	0	68	0	68	68	0	68	68	68	0	0	68	
0	0	0	27	27	27	0	27	0	0	0	0	27	0	27	
36	36	36	36	36	36	0	36	0	0	0	0	36	0	36	
0	0	85	0	0	0	0	85	85	0	0	85	0	0	0	
39	0	0	39	0	39	39	0	39	0	39	0	39	0	39	
0	50	50	50	0	50	50	0	50	0	50	50	50	50	0	
0	38	0	0	0	0	0	38	38	38	0	38	38	38	38	
0	0	0	0	18	0	0	0	18	18	18	18	18	18	18	
10	10	0	10	10	10	10	10	0	10	0	10	10	0	0	
77	77	77	0	0	77	0	77	77	77	0	77	0	0	0	
21	0	21	21	0	21	21	0	0	21	21	21	0	21	21	
88	0	88	0	88	0	88	0	88	88	0	0	0	88	0	
0	42	0	0	0	0	42	42	0	0	42	0	42	42	42	
18	18	18	0	18	18	0	18	18	18	18	18	18	18	0	
0	94	0	94	94	0	0	94	0	0	94	94	0	0	0	
92	92	92	0	0	0	92	92	92	0	0	92	0	92	92	
0	73	0	0	0	0	73	73	73	0	73	0	73	73	73	
46	46	46	0	0	46	46	46	0	0	46	46	0	0	46	
0	88	88	88	0	0	0	0	88	0	0	0	88	0	88	
56	0	56	56	56	0	0	56	56	0	56	56	0	56	0	
0	0	81	81	0	0	0	0	0	0	81	0	0	0	0	
0	0	22	22	0	22	0	22	0	22	0	22	22	22	22	
0	38	0	0	0	0	38	0	0	0	38	0	0	0	0	
0	0	96	96	0	96	96	0	96	96	0	96	96	96	96	
0	0	31	0	31	0	31	0	31	31	31	0	0	31	0	
0	95	0	95	0	0	95	95	95	95	0	95	0	0	95	
38	38	0	0	0	38	0	0	0	0	38	0	0	38	38	
0	50	0	50	50	50	0	50	50	50	50	0	50	0	0	
84	0	84	0	84	84	0	0	0	84	0	0	84	0	84	
0	0	0	70	0	0	70	0	0	70	70	0	0	0	70	
81	81	81	81	81	81	0	81	0	0	81	0	81	0	81	
0	0	55	0	55	0	0	55	0	55	0	0	0	55	55	
30	0	0	0	0	30	30	0	30	30	0	30	0	0	0	
0	97	97	97	97	97	0	0	97	0	97	97	97	0	97	
66	0	0	0	0	66	0	0	66	0	0	66	66	0	0	
29	29	0	0	29	29	29	0	0	29	29	0	29	0	0	
0	53	0	0	0	0	53	53	0	53	0	53	0	53	53	
0	73	73	73	73	73	0	0	73	73	0	0	73	0	73	
0	30	30	0	30	0	30	30	30	0	30	0	0	0	30	
0	0	0	0	93	0	93	0	0	0	0	93	0	0	0	
0	62	62	62	0	0	62	62	0	0	0	62	62	0	0	
0	0	0	63	0	63	63	63	0	63	0	63	63	63	63	
0	59	59	59	59	0	59	0	59	59	59	59	59	0	59	
0	0	84	0	0	84	84	0	84	84	0	84	0	84	0	
0	0	32	32	0	0	0	32	0	0	32	32	0	32	32	
0	0	68	68	0	68	68	0	0	0	0	68	68	68	0	
40	0	0	0	0	40	40	0	40	0	40	40	0	0	40	
11	0	0	0	0	0	0	11	0	11	11	11	0	0	0	
20	0	20	0	0	0	0	0	20	20	0	20	20	0	0	
76	76	0	0	76	76	0	76	0	0	76	0	76	76	76	
94	94	94	0	94	0	0	0	94	94	0	0	94	94	94	
0	40	40	0	40	0	0	0	40	40	40	0	40	40	40	
0	81	81	81	0	0	0	0	0	0	81	81	0	0	0	
0	31	0	31	0	0	31	31	0	31	31	31	0	31	31	
0	93	0	93	93	93	93	0	0	93	93	0	0	93	0	
0	89	89	89	89	89	89	89	0	89	89	0	0	0	0	
20	20	20	0	0	0	0	20	0	0	20	0	0	20	20	
0	0	0	41	41	41	41	41	41	0	41	0	41	41	0	
0	70	0	0	0	70	70	0	70	0	0	0	0	0	0	
0	0	76	76	0	76	76	0	0	76	76	0	76	0	76	
25	25	0	25	0	25	25	0	25	25	0	0	25	0	25	
0	0	97	97	0	0	0	0	97	97	0	0	0	0	97	
53	53	0	0	53	53	53	53	53	53	0	0	53	0	53	
87	87	87	87	0	0	87	0	0	0	0	87	0	87	87	
48	0	48	48	0	0	0	0	48	0	48	0	0	0	0	
95	0	0	95	95	95	95	95	0	95	95	0	0	95	0	
0	0	0	0	0	0	52	52	0	0	0	0	0	0	0	
68	68	68	68	68	0	68	0	68	68	68	0	0	68	0	
0	0	41	0	0	41	41	41	0	0	41	0	0	41	0	
0	40	40	40	40	0	40	0	40	0	40	40	0	0	0	
43	0	43	43	0	0	0	0	0	43	0	0	43	43	0	
0	0	0	0	37	37	37	0	0	37	37	0	37	37	37	
0	16	16	16	16	16	16	0	16	16	0	16	0	16	0	
78	0	78	78	0	0	78	78	78	0	78	0	0	0	78	
0	0	70	0	70	0	70	0	70	0	70	70	70	0	0	
0	72	0	72	72	0	72	72	0	0	0	0	72	0	0	
41	0	0	41	41	0	0	0	0	41	41	0	41	0	41	
81	81	81	0	81	81	81	0	0	0	81	81	81	81	81	
29	29	29	29	29	29	29	0	29	29	0	29	29	29	29	
0	59	59	59	59	0	59	0	0	0	59	0	59	0	59	
0	0	0	91	0	0	91	0	91	91	0	0	0	91	91	
0	26	26	26	26	0	0	26	0	26	0	0	26	26	0	
0	91	91	0	0	91	91	0	91	0	91	91	0	91	0	
0	14	14	14	0	14	14	0	14	14	14	0	0	14	0	
35	35	0	0	35	35	0	0	35	35	35	0	0	0	0	
65	65	65	0	65	0	0	0	65	0	0	65	65	65	0	
0	16	0	0	16	16	16	0	16	16	16	16	16	16	0	
96	0	0	96	96	96	96	96	0	96	96	0	96	96	0	
51	0	0	51	51	51	0	51	0	0	51	51	51	51	0	
0	0	0	0	0	66	66	66	66	0	0	66	0	66	66	
25	0	0	25	0	25	25	25	0	0	25	25	0	0	0	
73	0	73	0	0	73	0	73	0	0	73	73	0	0	0	
0	37	37	0	0	37	37	0	0	37	0	0	37	0	0	
0	43	0	0	0	43	43	43	43	43	43	0	0	0	0	
0	20	20	0	0	20	20	0	20	20	0	20	0	0	0	
97	0	0	0	0	0	97	97	0	0	0	0	0	97	97	
97	97	97	97	0	97	0	97	0	97	97	0	97	0	97	
0	0	0	0	49	0	0	0	49	0	49	0	49	49	49	
0	0	80	0	0	0	0	80	0	80	0	0	80	80	80	
72	72	72	0	0	0	72	72	72	0	0	0	72	72	0	
54	0	0	0	0	54	0	54	0	54	54	54	54	0	54	
0	0	0	0	0	0	0	24	24	24	24	24	24	0	24	
0	0	53	53	53	0	0	53	0	53	0	53	0	0	53	
0	0	76	76	76	0	0	0	76	76	0	76	0	76	0	
70	70	70	70	70	70	0	0	0	70	70	70	0	70	70	
0	0	24	0	24	24	0	0	0	0	24	24	24	0	24	
0	79	79	0	0	0	79	0	0	0	0	79	79	79	79	
77	0	77	77	0	77	77	0	0	0	0	0	0	0	0	
45	0	45	45	45	45	0	0	0	45	45	0	45	45	45	
0	19	0	19	0	19	19	0	0	19	0	19	0	0	19	
90	90	0	90	0	90	90	0	90	90	90	90	90	90	0	
82	82	82	0	0	82	0	0	0	0	0	82	82	0	0	
0	0	0	91	91	91	0	91	91	0	91	0	91	0	0	
76	0	76	0	76	0	0	0	76	76	76	0	76	0	76	
0	0	81	0	81	81	81	0	81	81	0	81	81	81	0	
0	60	60	60	0	60	0	0	60	60	60	60	0	60	0	
0	93	93	0	0	93	93	0	93	0	93	0	93	93	93	
62	0	0	62	0	62	0	62	62	62	0	62	62	62	62	
23	0	0	0	0	0	0	0	0	23	0	0	23	23	23	
0	0	32	0	32	32	32	0	0	0	32	32	0	32	0	
0	49	49	0	0	0	0	0	0	0	0	49	0	49	0	
0	0	0	87	87	0	87	0	87	87	0	0	87	0	87	
0	0	0	47	47	0	0	47	0	0	0	0	0	0	0	
13	13	13	13	0	13	0	13	0	13	13	13	0	13	13	
0	29	29	29	29	29	0	0	0	0	29	29	29	29	0	
0	0	14	14	0	0	0	14	0	14	0	0	0	14	14	
0	0	0	33	0	0	0	0	0	33	0	33	33	0	0	
0	0	80	80	80	80	80	0	0	0	80	0	80	0	80	
0	17	17	0	0	17	17	17	17	0	17	0	17	17	17	
0	0	0	51	0	51	0	51	51	51	51	0	0	0	0	
67	0	0	67	0	0	0	67	67	67	0	0	0	67	67	
0	34	0	0	34	34	34	34	0	34	0	34	34	34	0	
37	37	37	0	37	0	0	37	37	0	0	37	0	37	37	
0	0	0	91	0	0	0	0	0	0	0	91	91	91	91	
0	0	18	18	18	18	0	18	18	0	18	0	0	18	18	
0	91	0	0	0	91	0	91	0	0	91	91	0	91	0	
20	20	0	0	0	0	20	20	0	20	20	0	20	20	20	
0	98	98	0	98	0	0	98	98	98	98	0	98	0	0	
0	0	24	24	0	0	24	24	24	24	0	24	24	24	24	
31	31	31	31	0	31	0	0	31	0	0	0	0	31	31	
0	0	62	62	0	0	0	0	0	62	0	62	62	62	0	
0	32	0	32	0	32	32	32	0	32	0	0	0	32	32	
78	78	78	0	0	78	78	0	78	78	78	0	0	78	0	
21	0	0	21	21	21	0	21	21	0	21	0	0	0	0	
0	0	0	0	48	0	48	0	0	48	0	0	48	48	0	
67	0	0	0	0	67	0	67	0	0	0	0	0	0	67	
0	0	58	58	0	0	58	58	0	58	0	0	0	58	58	
75	0	75	0	0	0	0	75	0	0	0	75	75	75	75	
0	0	52	0	52	0	0	52	0	0	0	52	0	52	0	
12	12	0	12	12	12	12	12	12	12	12	0	0	0	0	
11	0	0	0	11	0	0	11	0	11	0	0	11	0	0	
82	0	0	0	82	0	0	0	0	82	0	0	0	0	82	
29	29	0	0	0	0	29	0	0	0	0	29	0	0	29	
0	0	77	77	77	0	77	77	0	0	0	77	77	0	0	
38	0	38	38	38	0	0	38	0	0	38	0	38	38	0	
0	0	77	0	0	0	0	77	77	0	0	77	0	77	0	
0	0	0	56	56	0	56	56	56	56	56	0	0	0	0	
0	48	48	0	0	0	48	0	0	0	48	48	48	48	0	
0	94	94	94	0	0	94	94	94	0	0	94	0	0	0	
0	0	65	65	65	0	0	0	65	65	0	65	65	65	0	
73	0	73	73	0	73	0	73	0	0	0	73	73	0	0	
0	0	65	0	0	65	65	65	65	65	65	65	0	0	0	
0	0	0	33	33	33	33	0	0	0	0	0	0	33	0	
16	16	16	0	0	16	16	16	0	16	16	16	0	0	16	
0	73	73	73	0	0	0	0	73	73	0	0	0	0	0	
32	32	32	32	32	32	32	32	32	32	0	0	32	0	0	
86	86	86	0	86	86	0	86	0	0	86	86	86	0	86	
33	33	33	33	33	0	33	0	0	0	0	0	0	33	0	
35	35	35	35	35	35	35	0	0	0	0	35	35	35	0	
0	26	26	0	26	26	0	26	26	0	0	0	0	0	0	
0	0	0	94	0	94	0	94	94	94	94	0	94	94	0	
44	0	44	44	44	44	44	0	0	44	0	0	44	0	0	
0	66	66	0	0	0	0	0	66	66	0	0	0	66	66	
0	51	0	0	0	51	0	51	0	51	51	51	0	0	51	
64	0	0	64	64	64	0	64	0	0	64	64	0	64	0	
0	0	0	84	0	84	0	0	84	84	0	84	0	0	84	
0	0	0	87	87	0	0	0	87	0	87	87	0	0	0	
46	46	46	46	46	0	0	46	0	0	46	0	0	0	46	
47	47	0	0	0	47	0	0	0	0	0	47	0	47	47	
0	76	0	0	0	0	76	76	0	0	76	0	0	76	0	
20	20	0	20	0	20	0	0	20	20	0	20	0	20	20	
45	45	0	45	45	0	45	0	0	0	45	0	0	45	45	
62	0	62	62	0	0	0	62	0	62	62	62	62	0	0	
76	0	0	76	76	0	0	76	76	76	76	0	76	0	0	
63	63	0	0	63	63	0	63	0	0	63	63	63	63	0	
0	41	41	0	0	41	0	41	41	41	41	0	0	41	41	
0	65	0	65	65	0	65	65	0	65	0	65	0	65	65	
39	39	0	39	0	0	39	0	39	0	0	39	39	0	0	
29	29	29	0	0	0	0	0	29	29	29	0	29	29	29	
0	32	32	32	32	0	0	0	0	0	0	32	32	0	32	
18	18	18	0	18	18	0	18	18	18	0	0	18	18	0	
53	0	0	53	0	0	53	53	53	53	53	53	53	53	0	
0	0	0	60	60	0	60	60	0	60	0	60	0	60	60	
25	0	25	25	0	0	25	25	25	25	25	25	25	0	25	
30	30	30	0	0	30	0	0	0	30	0	30	0	0	30	
0	48	0	48	0	0	48	0	0	0	48	0	0	48	48	
0	0	0	0	0	16	16	16	16	0	0	16	16	0	16	
12	12	12	12	12	12	12	0	12	0	0	0	12	0	0	
0	0	14	14	0	0	14	0	14	14	14	0	14	14	0	
31	0	31	0	31	0	31	31	0	31	0	0	31	0	0	
0	0	0	86	86	86	86	0	86	0	86	0	0	0	0	
91	91	91	91	91	91	91	0	0	0	91	91	91	91	0	
39	39	39	39	39	0	39	0	39	0	39	0	0	39	39	
95	95	95	0	0	0	0	95	0	0	95	95	0	0	0	
76	76	76	0	76	0	76	0	76	76	0	76	76	76	76	
56	56	0	0	0	0	0	56	0	56	56	0	0	56	56	
0	22	0	0	22	0	0	0	0	22	0	0	0	0	22	
0	36	0	0	36	0	36	0	36	0	36	0	36	0	0	
44	44	0	0	44	0	44	44	44	0	0	0	0	44	44	
0	0	87	0	87	87	87	87	0	0	0	0	87	0	87	
68	68	0	0	0	0	0	68	0	0	0	68	0	0	68	
86	0	86	86	0	86	0	86	0	86	0	0	0	0	0	
55	0	55	0	55	0	0	55	0	55	0	0	0	55	0	
0	0	32	32	32	32	32	32	32	32	0	32	32	32	0	
41	0	41	0	41	0	0	0	0	0	0	41	41	41	41	
0	94	94	94	0	0	0	0	94	0	94	94	0	94	0	
0	68	68	0	0	68	0	0	0	0	68	0	0	0	0	
0	17	17	17	17	0	0	0	17	17	0	0	17	17	0	
23	23	23	23	0	0	23	0	23	0	0	0	23	0	0	
0	81	81	81	0	0	0	81	0	81	81	81	81	0	0	
60	0	0	0	0	0	60	60	0	0	0	0	60	60	60	
0	0	37	0	37	0	0	0	0	37	0	0	37	37	0	
0	0	0	0	34	34	0	34	34	0	34	34	34	0	34	
0	65	0	0	0	0	0	65	0	65	65	65	65	0	65	
0	0	78	78	78	0	0	0	0	0	0	0	0	78	78	
10	0	0	0	0	10	0	0	10	10	10	0	0	10	0	
0	0	21	21	0	21	21	0	21	0	0	0	0	21	0	
62	0	0	62	62	62	0	62	0	0	62	62	0	0	0	
0	0	23	23	23	0	23	23	23	23	0	0	0	23	23	
62	62	62	0	0	0	0	62	0	62	0	62	0	0	0	
0	0	0	0	27	0	27	0	27	0	27	27	27	0	27	
0	30	30	0	30	30	0	0	0	0	30	30	30	30	30	
40	40	40	40	40	0	0	40	0	40	40	40	40	0	0	
97	97	97	0	0	97	0	97	97	0	97	0	0	0	97	
86	0	86	86	86	86	86	86	0	86	86	0	0	86	86	
17	17	0	17	0	0	17	0	17	17	17	0	17	17	17	
0	0	0	68	68	68	0	68	0	0	0	0	0	0	68	
30	30	0	30	30	0	30	0	30	30	0	30	0	30	0	
0	0	56	56	0	56	0	56	0	0	56	56	0	56	0	
0	90	0	90	0	90	0	0	0	0	90	90	90	0	0	
70	70	70	0	70	70	0	0	70	0	0	0	0	70	70	
35	0	0	0	0	35	35	35	35	35	0	0	0	35	0	
93	0	93	93	93	93	93	93	0	93	93	93	0	0	93	
0	0	0	38	0	38	0	38	0	0	38	0	38	0	0	
88	0	0	0	88	0	88	0	0	88	88	0	0	88	88	
97	0	97	97	97	97	97	97	97	97	97	0	97	0	0	
39	0	39	39	39	0	39	39	39	0	0	0	0	0	0	
0	0	95	0	0	0	95	0	0	0	0	0	0	95	95	
0	35	35	0	0	0	35	35	0	0	0	35	35	0	35	
24	24	24	24	24	0	24	0	0	0	0	0	24	0	0	
19	0	19	0	19	19	19	19	19	19	0	19	19	19	0	
0	36	0	0	0	0	36	0	0	36	0	36	0	36	0	
0	20	20	20	20	20	20	20	0	0	0	0	20	20	0	
0	0	0	74	0	74	0	0	0	0	74	74	0	0	74	
95	95	95	95	95	95	0	0	95	0	95	0	95	95	95	
84	84	84	0	0	84	84	84	84	0	0	0	84	84	84	
28	0	28	28	0	0	28	0	28	28	0	28	28	0	0	
0	0	0	86	0	86	0	86	0	86	0	0	86	0	86	
44	0	0	0	44	44	0	0	44	44	44	44	44	0	44	
10	10	0	10	0	10	10	10	0	0	0	0	0	0	10	
50	0	0	0	0	0	0	50	0	0	0	0	50	50	0	
0	35	0	35	35	0	35	35	35	0	0	35	35	35	0	
0	0	0	54	54	0	0	0	0	0	54	54	54	0	0	
0	0	29	0	0	0	29	29	0	29	29	29	29	29	29	
0	60	60	0	60	60	0	0	60	60	0	0	0	0	60	
0	45	45	45	45	45	0	0	0	0	0	45	45	0	0	
0	0	0	0	53	53	0	53	53	0	53	53	0	0	0	
90	0	0	90	0	90	90	90	90	0	0	90	90	90	0	
0	0	84	84	0	84	84	84	84	0	0	84	0	84	0	
0	57	57	57	0	0	57	0	0	0	0	57	57	0	0	
62	0	0	0	0	62	62	0	62	0	62	0	62	62	0	
0	65	0	0	0	65	65	65	0	0	0	65	65	0	65	
33	0	33	0	0	33	0	33	33	33	33	33	0	33	0	
41	41	41	0	0	41	0	41	41	41	0	41	0	41	41	
89	0	89	89	0	89	0	89	0	0	89	89	89	89	89	
22	22	22	0	22	0	0	0	22	0	0	22	0	22	0	
0	0	0	0	42	0	0	0	0	42	0	42	42	0	0	
0	0	89	89	89	89	0	89	89	0	89	89	0	89	0	
0	16	16	16	16	16	16	16	0	16	16	0	16	0	0	
0	52	52	52	52	0	52	0	52	52	52	52	52	52	0	
17	0	0	0	17	0	0	17	0	0	17	17	0	0	0	
38	0	0	0	38	38	0	0	0	0	38	38	0	0	0	
0	93	0	93	93	0	0	93	0	93	93	93	93	0	0	
34	0	34	34	34	34	0	0	34	0	0	34	34	0	34	
0	0	0	0	0	0	0	58	0	58	58	0	58	0	58	
0	0	35	0	35	0	0	35	35	35	35	0	0	0	0	
0	0	0	0	0	14	0	14	14	14	14	0	0	14	14	
0	0	0	73	73	73	0	73	0	73	0	73	0	0	0	
0	0	0	16	0	0	16	0	0	0	0	0	16	16	0	
0	37	37	37	0	37	37	37	37	0	0	0	0	0	37	
47	0	0	47	0	0	47	0	0	47	47	0	0	0	47	
0	35	35	35	35	35	35	0	35	0	0	35	0	35	35	
0	0	54	54	0	0	0	54	0	0	54	54	54	54	0	
52	52	52	52	52	52	0	52	0	0	0	0	52	0	52	
35	35	35	0	0	35	0	0	0	0	0	35	0	0	35	
0	0	0	21	0	0	0	0	21	0	0	21	21	21	0	
0	0	31	31	0	31	0	31	0	0	31	0	31	0	0	
0	34	0	34	34	34	34	34	0	0	0	0	0	34	0	
23	23	0	23	0	23	23	0	23	0	23	23	0	23	0	
0	84	0	0	0	0	84	84	0	0	84	84	0	0	0	
0	0	0	48	48	0	48	0	0	0	48	0	0	0	0	
0	48	0	0	48	0	48	0	48	48	48	0	0	0	0	
0	10	10	0	10	10	10	0	0	0	10	0	0	10	0	
64	0	0	0	0	0	64	64	0	64	64	0	0	0	64	
67	67	67	67	67	0	0	67	0	0	0	67	67	67	0	
29	0	29	29	29	29	0	0	0	29	0	29	0	29	29	
0	65	65	65	65	0	0	0	0	65	65	0	0	65	65	
0	78	0	78	0	78	0	78	0	78	78	0	78	0	0	
80	80	0	80	0	80	0	0	80	0	80	80	80	80	80	
0	60	60	0	60	0	0	60	0	0	0	60	60	0	60	
0	14	0	0	14	14	0	14	14	14	14	14	0	0	14	
47	47	47	0	0	47	47	0	47	0	0	47	47	47	47	
0	0	75	0	0	75	75	0	0	75	75	75	75	0	75	
98	0	0	98	0	0	0	98	98	98	98	98	0	0	98	
19	0	0	0	0	19	0	0	19	19	19	0	0	19	0	
0	0	95	95	0	95	0	95	95	95	95	0	95	0	95	
52	52	0	52	0	0	0	52	52	52	0	0	52	52	0	
24	24	0	24	24	24	24	0	0	24	24	0	0	24	24	
0	75	0	75	75	0	75	75	75	0	75	75	75	0	0	
76	0	76	76	76	76	0	0	76	0	76	0	0	76	76	
90	90	90	90	90	0	90	90	90	90	0	90	90	90	0	
0	53	0	53	53	53	53	53	0	0	0	0	53	0	0	
0	70	70	70	0	70	0	0	70	70	70	0	0	70	0	
20	0	20	20	20	0	20	20	0	0	20	20	0	0	0	
0	10	0	10	10	10	0	10	0	0	0	0	0	10	0	
80	0	0	80	80	80	80	0	0	0	80	0	0	80	80	
0	37	0	37	0	37	37	0	37	0	0	0	37	37	37	
50	50	50	50	0	50	0	0	0	0	50	0	0	50	0	
77	77	0	0	0	0	0	77	0	77	0	77	77	77	77	
83	83	83	0	0	0	0	0	0	83	0	83	83	83	83	
0	86	0	0	86	0	0	86	86	0	0	86	0	86	86	
63	63	63	0	63	63	63	0	63	0	63	0	63	63	63	
0	32	32	0	0	0	0	32	32	0	32	0	32	0	0	
0	91	91	91	91	91	91	91	0	0	91	91	0	91	0	
0	43	0	43	0	43	43	43	0	43	43	0	0	43	43	
0	41	41	41	0	0	0	0	0	41	41	0	41	0	41	
24	0	24	0	24	0	24	24	0	0	24	0	0	0	0	
26	0	26	0	26	0	0	26	26	0	0	0	26	0	0	
63	63	0	0	0	63	63	0	63	63	0	0	0	63	63	
0	0	13	0	13	0	13	0	0	13	0	0	0	13	13	
78	78	78	0	0	78	0	0	78	0	78	78	78	78	78	
0	77	0	0	77	0	0	0	77	77	0	77	0	0	0	
0	62	62	62	62	62	0	62	0	0	0	62	62	0	62	
32	32	32	0	0	0	32	32	32	0	0	32	32	32	0	
55	0	55	0	55	55	0	55	0	55	0	0	0	0	55	
34	34	34	34	0	34	0	0	0	34	34	34	34	0	34	
35	35	0	0	0	0	0	0	35	35	35	0	35	0	0	
0	43	0	0	43	43	0	0	43	0	43	0	0	43	0	
0	73	73	73	73	73	73	0	73	73	73	0	73	0	73	
97	97	0	0	0	97	97	97	97	0	0	0	97	97	0	
0	61	0	0	0	61	61	61	0	0	0	0	0	0	0	
0	83	83	83	0	83	0	0	0	83	83	0	83	0	83	
85	85	85	0	85	0	0	0	85	85	0	0	85	0	85	
90	0	0	0	90	90	0	0	90	0	90	90	90	0	0	
58	58	58	58	0	58	0	0	0	58	58	58	58	58	58	
0	60	0	0	0	60	60	60	60	0	60	60	60	0	60	
0	12	0	12	12	0	12	12	12	12	0	0	12	12	0	
23	0	23	23	23	0	0	23	0	23	0	0	23	0	23	
33	33	33	33	0	33	33	33	0	0	33	33	33	0	33	
0	15	0	0	15	0	0	0	15	15	0	0	0	0	15	
93	0	93	0	93	93	93	93	0	0	93	0	0	0	0	
0	50	50	50	0	0	0	0	0	50	0	50	0	0	50	
35	35	35	35	35	0	0	35	35	35	35	35	35	35	35	
0	27	0	0	0	27	0	0	0	0	27	27	27	0	0	
19	19	0	0	19	19	0	0	0	19	0	19	0	19	0	
0	85	85	85	85	85	0	85	85	85	85	0	85	85	0	
0	85	0	85	0	0	85	0	0	85	0	85	0	85	0	
98	98	98	98	0	0	98	0	98	98	0	0	98	98	0	
0	0	16	0	0	16	0	0	0	0	16	16	0	16	16	
50	50	50	0	50	0	0	50	50	0	0	0	0	50	0	
0	37	37	37	37	0	37	37	0	37	37	37	37	37	0	
89	89	89	0	89	0	0	89	89	0	89	89	0	0	0	
0	30	30	0	30	30	0	30	0	0	0	30	0	30	30	
0	35	35	0	35	35	0	0	0	0	0	35	0	35	0	
0	47	0	0	47	47	0	47	0	0	0	0	0	0	0	
0	14	0	0	0	14	14	14	0	14	14	14	14	14	14	
0	43	43	43	43	0	43	43	43	43	0	43	0	0	43	
0	0	36	36	0	36	36	36	36	0	0	36	0	0	0	
0	0	0	94	0	0	94	94	0	94	94	0	0	0	94	
95	95	95	0	0	0	0	0	95	0	0	0	95	95	0	
0	0	81	0	0	0	0	0	0	81	0	81	0	81	0	
70	0	70	0	70	70	0	70	70	0	70	70	0	70	70	
0	85	85	0	85	0	85	0	0	0	0	0	85	85	0	
0	66	0	66	0	0	0	0	66	0	0	0	0	0	0	
82	0	0	82	82	0	82	82	82	0	82	0	0	0	0	
84	0	84	84	84	0	0	0	84	84	0	0	84	84	84	
0	0	90	0	0	90	90	0	0	90	0	0	0	0	90	
0	0	77	0	0	77	0	0	77	77	0	0	77	77	0	
73	0	0	73	0	73	73	73	0	0	73	0	0	0	0	
33	33	0	33	0	0	0	0	33	33	0	0	0	33	0	
90	90	0	0	0	0	90	0	0	90	90	90	90	0	90	
0	29	0	29	29	0	29	0	29	0	29	29	0	0	29	
55	55	0	55	55	0	55	55	55	0	0	0	0	55	0	
82	82	0	0	82	82	82	82	0	0	0	82	0	0	82	
68	68	68	0	0	0	0	68	0	68	68	0	0	68	0	
22	22	0	22	22	0	0	0	0	0	22	0	22	0	22	
0	0	0	0	87	87	0	0	0	87	87	0	87	0	0	
0	36	36	0	0	36	0	0	36	0	36	36	36	36	0	
0	0	0	33	33	0	33	0	0	33	0	0	33	0	33	
0	0	0	0	0	0	0	0	95	0	95	0	0	0	0	
0	0	94	0	0	94	0	94	94	0	94	0	0	0	94	
81	0	81	81	0	81	81	81	81	0	81	0	81	0	81	
0	85	0	85	0	85	0	0	0	0	0	85	85	0	0	
0	82	0	82	82	82	82	0	82	82	0	0	0	0	82	
0	22	22	0	22	0	22	22	0	0	0	0	0	22	22	
0	0	53	53	0	53	53	53	0	0	0	0	0	53	0	
0	39	0	39	0	39	0	0	0	0	0	0	0	0	0	
